56
34 62
66 87
89 64
53 7
94 9
87 77
64 96
76 10
28 75
34 34
68 10
34 84
79 31
86 34
63 19
32 33
71 48
63 97
55 60
68 15
43 100
96 55
16 6
80 23
8 44
5 65
1 27
10 90
23 31
1 95
79 37
84 32
80 50
61 47
61 34
86 28
34 4
9 33
55 2
